p cnf 645 2191
c p weight 258 -1 0
c p weight -258 1 0
c p weight 260 6.12323399573676603586882014729198302312846062338790031898128063403419218957424163818359375E-17 0
c p weight -260 1 0
c p weight 261 1 0
c p weight -261 1 0
c p weight 262 -1 0
c p weight -262 1 0
c p weight 264 -1 0
c p weight -264 1 0
c p weight 267 -1 0
c p weight -267 1 0
c p weight 270 -1 0
c p weight -270 1 0
c p weight 273 -1 0
c p weight -273 1 0
c p weight 276 -1 0
c p weight -276 1 0
c p weight 279 -1 0
c p weight -279 1 0
c p weight 282 -1 0
c p weight -282 1 0
c p weight 285 -1 0
c p weight -285 1 0
c p weight 288 -1 0
c p weight -288 1 0
c p weight 291 -1 0
c p weight -291 1 0
c p weight 294 -1 0
c p weight -294 1 0
c p weight 297 -1 0
c p weight -297 1 0
c p weight 300 -1 0
c p weight -300 1 0
c p weight 303 -1 0
c p weight -303 1 0
c p weight 306 -1 0
c p weight -306 1 0
c p weight 309 -1 0
c p weight -309 1 0
c p weight 312 -1 0
c p weight -312 1 0
c p weight 315 -1 0
c p weight -315 1 0
c p weight 318 -1 0
c p weight -318 1 0
c p weight 321 -1 0
c p weight -321 1 0
c p weight 324 -1 0
c p weight -324 1 0
c p weight 327 -1 0
c p weight -327 1 0
c p weight 330 -1 0
c p weight -330 1 0
c p weight 333 -1 0
c p weight -333 1 0
c p weight 336 -1 0
c p weight -336 1 0
c p weight 339 -1 0
c p weight -339 1 0
c p weight 342 -1 0
c p weight -342 1 0
c p weight 345 -1 0
c p weight -345 1 0
c p weight 348 -1 0
c p weight -348 1 0
c p weight 351 -1 0
c p weight -351 1 0
c p weight 354 -1 0
c p weight -354 1 0
c p weight 357 -1 0
c p weight -357 1 0
c p weight 360 -1 0
c p weight -360 1 0
c p weight 363 -1 0
c p weight -363 1 0
c p weight 366 -1 0
c p weight -366 1 0
c p weight 369 -1 0
c p weight -369 1 0
c p weight 372 -1 0
c p weight -372 1 0
c p weight 375 -1 0
c p weight -375 1 0
c p weight 378 -1 0
c p weight -378 1 0
c p weight 381 -1 0
c p weight -381 1 0
c p weight 384 -1 0
c p weight -384 1 0
c p weight 387 -1 0
c p weight -387 1 0
c p weight 390 -1 0
c p weight -390 1 0
c p weight 393 -1 0
c p weight -393 1 0
c p weight 396 -1 0
c p weight -396 1 0
c p weight 399 -1 0
c p weight -399 1 0
c p weight 402 -1 0
c p weight -402 1 0
c p weight 405 -1 0
c p weight -405 1 0
c p weight 408 -1 0
c p weight -408 1 0
c p weight 411 -1 0
c p weight -411 1 0
c p weight 414 -1 0
c p weight -414 1 0
c p weight 417 -1 0
c p weight -417 1 0
c p weight 420 -1 0
c p weight -420 1 0
c p weight 423 -1 0
c p weight -423 1 0
c p weight 426 -1 0
c p weight -426 1 0
c p weight 429 -1 0
c p weight -429 1 0
c p weight 432 -1 0
c p weight -432 1 0
c p weight 435 -1 0
c p weight -435 1 0
c p weight 438 -1 0
c p weight -438 1 0
c p weight 441 -1 0
c p weight -441 1 0
c p weight 444 -1 0
c p weight -444 1 0
c p weight 447 -1 0
c p weight -447 1 0
c p weight 450 -1 0
c p weight -450 1 0
c p weight 453 -1 0
c p weight -453 1 0
c p weight 456 -1 0
c p weight -456 1 0
c p weight 459 -1 0
c p weight -459 1 0
c p weight 462 -1 0
c p weight -462 1 0
c p weight 465 -1 0
c p weight -465 1 0
c p weight 468 -1 0
c p weight -468 1 0
c p weight 471 -1 0
c p weight -471 1 0
c p weight 474 -1 0
c p weight -474 1 0
c p weight 477 -1 0
c p weight -477 1 0
c p weight 480 -1 0
c p weight -480 1 0
c p weight 483 -1 0
c p weight -483 1 0
c p weight 486 -1 0
c p weight -486 1 0
c p weight 489 -1 0
c p weight -489 1 0
c p weight 492 -1 0
c p weight -492 1 0
c p weight 495 -1 0
c p weight -495 1 0
c p weight 498 -1 0
c p weight -498 1 0
c p weight 501 -1 0
c p weight -501 1 0
c p weight 504 -1 0
c p weight -504 1 0
c p weight 507 -1 0
c p weight -507 1 0
c p weight 510 -1 0
c p weight -510 1 0
c p weight 513 -1 0
c p weight -513 1 0
c p weight 516 -1 0
c p weight -516 1 0
c p weight 519 -1 0
c p weight -519 1 0
c p weight 522 -1 0
c p weight -522 1 0
c p weight 525 -1 0
c p weight -525 1 0
c p weight 528 -1 0
c p weight -528 1 0
c p weight 531 -1 0
c p weight -531 1 0
c p weight 534 -1 0
c p weight -534 1 0
c p weight 537 -1 0
c p weight -537 1 0
c p weight 540 -1 0
c p weight -540 1 0
c p weight 543 -1 0
c p weight -543 1 0
c p weight 546 -1 0
c p weight -546 1 0
c p weight 549 -1 0
c p weight -549 1 0
c p weight 552 -1 0
c p weight -552 1 0
c p weight 555 -1 0
c p weight -555 1 0
c p weight 558 -1 0
c p weight -558 1 0
c p weight 561 -1 0
c p weight -561 1 0
c p weight 564 -1 0
c p weight -564 1 0
c p weight 567 -1 0
c p weight -567 1 0
c p weight 570 -1 0
c p weight -570 1 0
c p weight 573 -1 0
c p weight -573 1 0
c p weight 576 -1 0
c p weight -576 1 0
c p weight 579 -1 0
c p weight -579 1 0
c p weight 582 -1 0
c p weight -582 1 0
c p weight 585 -1 0
c p weight -585 1 0
c p weight 588 -1 0
c p weight -588 1 0
c p weight 591 -1 0
c p weight -591 1 0
c p weight 594 -1 0
c p weight -594 1 0
c p weight 597 -1 0
c p weight -597 1 0
c p weight 600 -1 0
c p weight -600 1 0
c p weight 603 -1 0
c p weight -603 1 0
c p weight 606 -1 0
c p weight -606 1 0
c p weight 609 -1 0
c p weight -609 1 0
c p weight 612 -1 0
c p weight -612 1 0
c p weight 615 -1 0
c p weight -615 1 0
c p weight 618 -1 0
c p weight -618 1 0
c p weight 621 -1 0
c p weight -621 1 0
c p weight 624 -1 0
c p weight -624 1 0
c p weight 627 -1 0
c p weight -627 1 0
c p weight 630 -1 0
c p weight -630 1 0
c p weight 633 -1 0
c p weight -633 1 0
c p weight 636 -1 0
c p weight -636 1 0
c p weight 639 -1 0
c p weight -639 1 0
c p weight 642 -1 0
c p weight -642 1 0
c p weight 645 -1 0
c p weight -645 1 0
-255 0
-253 0
-251 0
-249 0
-247 0
-245 0
-243 0
-241 0
-239 0
-237 0
-235 0
-233 0
-231 0
-229 0
-227 0
-225 0
-223 0
-221 0
-219 0
-217 0
-215 0
-213 0
-211 0
-209 0
-207 0
-205 0
-203 0
-201 0
-199 0
-197 0
-195 0
-193 0
-191 0
-189 0
-187 0
-185 0
-183 0
-181 0
-179 0
-177 0
-175 0
-173 0
-171 0
-169 0
-167 0
-165 0
-163 0
-161 0
-159 0
-157 0
-155 0
-153 0
-151 0
-149 0
-147 0
-145 0
-143 0
-141 0
-139 0
-137 0
-135 0
-133 0
-131 0
-129 0
-127 0
-125 0
-123 0
-121 0
-119 0
-117 0
-115 0
-113 0
-111 0
-109 0
-107 0
-105 0
-103 0
-101 0
-99 0
-97 0
-95 0
-93 0
-91 0
-89 0
-87 0
-85 0
-83 0
-81 0
-79 0
-77 0
-75 0
-73 0
-71 0
-69 0
-67 0
-65 0
-63 0
-61 0
-59 0
-57 0
-55 0
-53 0
-51 0
-49 0
-47 0
-45 0
-43 0
-41 0
-39 0
-37 0
-35 0
-33 0
-31 0
-29 0
-27 0
-25 0
-23 0
-21 0
-19 0
-17 0
-15 0
-13 0
-11 0
-9 0
-7 0
-5 0
-3 0
-1 0
257 255 -256 0
257 -255 256 0
-257 255 256 0
-257 -255 -256 0
-258 255 0
-258 256 0
258 -255 -256 0
259 -255 257 0
-259 255 257 0
-260 257 0
259 -260 -255 0
-259 -260 255 0
259 260 255 -257 0
-259 260 -255 -257 0
-261 257 0
259 -261 255 0
-259 -261 -255 0
259 261 -255 -257 0
-259 261 255 -257 0
-262 259 0
-262 257 0
-262 -255 0
262 -259 255 -257 0
263 259 -257 0
263 -259 257 0
-263 259 257 0
-263 -259 -257 0
-264 259 0
-264 257 0
264 -259 -257 0
265 259 -253 0
265 -259 253 0
-265 259 253 0
-265 -259 -253 0
266 263 -254 0
266 -263 254 0
-266 263 254 0
-266 -263 -254 0
-267 259 0
-267 254 0
-267 253 -263 0
-267 -253 263 0
267 -259 253 263 -254 0
267 -259 -253 -263 -254 0
268 265 -251 0
268 -265 251 0
-268 265 251 0
-268 -265 -251 0
269 254 -252 0
269 -254 252 0
-269 254 252 0
-269 -254 -252 0
-270 265 0
-270 252 0
-270 251 -254 0
-270 -251 254 0
270 -265 251 254 -252 0
270 -265 -251 -254 -252 0
271 268 -249 0
271 -268 249 0
-271 268 249 0
-271 -268 -249 0
272 252 -250 0
272 -252 250 0
-272 252 250 0
-272 -252 -250 0
-273 268 0
-273 250 0
-273 249 -252 0
-273 -249 252 0
273 -268 249 252 -250 0
273 -268 -249 -252 -250 0
274 271 -247 0
274 -271 247 0
-274 271 247 0
-274 -271 -247 0
275 250 -248 0
275 -250 248 0
-275 250 248 0
-275 -250 -248 0
-276 271 0
-276 248 0
-276 247 -250 0
-276 -247 250 0
276 -271 247 250 -248 0
276 -271 -247 -250 -248 0
277 274 -245 0
277 -274 245 0
-277 274 245 0
-277 -274 -245 0
278 248 -246 0
278 -248 246 0
-278 248 246 0
-278 -248 -246 0
-279 274 0
-279 246 0
-279 245 -248 0
-279 -245 248 0
279 -274 245 248 -246 0
279 -274 -245 -248 -246 0
280 277 -243 0
280 -277 243 0
-280 277 243 0
-280 -277 -243 0
281 246 -244 0
281 -246 244 0
-281 246 244 0
-281 -246 -244 0
-282 277 0
-282 244 0
-282 243 -246 0
-282 -243 246 0
282 -277 243 246 -244 0
282 -277 -243 -246 -244 0
283 280 -241 0
283 -280 241 0
-283 280 241 0
-283 -280 -241 0
284 244 -242 0
284 -244 242 0
-284 244 242 0
-284 -244 -242 0
-285 280 0
-285 242 0
-285 241 -244 0
-285 -241 244 0
285 -280 241 244 -242 0
285 -280 -241 -244 -242 0
286 283 -239 0
286 -283 239 0
-286 283 239 0
-286 -283 -239 0
287 242 -240 0
287 -242 240 0
-287 242 240 0
-287 -242 -240 0
-288 283 0
-288 240 0
-288 239 -242 0
-288 -239 242 0
288 -283 239 242 -240 0
288 -283 -239 -242 -240 0
289 286 -237 0
289 -286 237 0
-289 286 237 0
-289 -286 -237 0
290 240 -238 0
290 -240 238 0
-290 240 238 0
-290 -240 -238 0
-291 286 0
-291 238 0
-291 237 -240 0
-291 -237 240 0
291 -286 237 240 -238 0
291 -286 -237 -240 -238 0
292 289 -235 0
292 -289 235 0
-292 289 235 0
-292 -289 -235 0
293 238 -236 0
293 -238 236 0
-293 238 236 0
-293 -238 -236 0
-294 289 0
-294 236 0
-294 235 -238 0
-294 -235 238 0
294 -289 235 238 -236 0
294 -289 -235 -238 -236 0
295 292 -233 0
295 -292 233 0
-295 292 233 0
-295 -292 -233 0
296 236 -234 0
296 -236 234 0
-296 236 234 0
-296 -236 -234 0
-297 292 0
-297 234 0
-297 233 -236 0
-297 -233 236 0
297 -292 233 236 -234 0
297 -292 -233 -236 -234 0
298 295 -231 0
298 -295 231 0
-298 295 231 0
-298 -295 -231 0
299 234 -232 0
299 -234 232 0
-299 234 232 0
-299 -234 -232 0
-300 295 0
-300 232 0
-300 231 -234 0
-300 -231 234 0
300 -295 231 234 -232 0
300 -295 -231 -234 -232 0
301 298 -229 0
301 -298 229 0
-301 298 229 0
-301 -298 -229 0
302 232 -230 0
302 -232 230 0
-302 232 230 0
-302 -232 -230 0
-303 298 0
-303 230 0
-303 229 -232 0
-303 -229 232 0
303 -298 229 232 -230 0
303 -298 -229 -232 -230 0
304 301 -227 0
304 -301 227 0
-304 301 227 0
-304 -301 -227 0
305 230 -228 0
305 -230 228 0
-305 230 228 0
-305 -230 -228 0
-306 301 0
-306 228 0
-306 227 -230 0
-306 -227 230 0
306 -301 227 230 -228 0
306 -301 -227 -230 -228 0
307 304 -225 0
307 -304 225 0
-307 304 225 0
-307 -304 -225 0
308 228 -226 0
308 -228 226 0
-308 228 226 0
-308 -228 -226 0
-309 304 0
-309 226 0
-309 225 -228 0
-309 -225 228 0
309 -304 225 228 -226 0
309 -304 -225 -228 -226 0
310 307 -223 0
310 -307 223 0
-310 307 223 0
-310 -307 -223 0
311 226 -224 0
311 -226 224 0
-311 226 224 0
-311 -226 -224 0
-312 307 0
-312 224 0
-312 223 -226 0
-312 -223 226 0
312 -307 223 226 -224 0
312 -307 -223 -226 -224 0
313 310 -221 0
313 -310 221 0
-313 310 221 0
-313 -310 -221 0
314 224 -222 0
314 -224 222 0
-314 224 222 0
-314 -224 -222 0
-315 310 0
-315 222 0
-315 221 -224 0
-315 -221 224 0
315 -310 221 224 -222 0
315 -310 -221 -224 -222 0
316 313 -219 0
316 -313 219 0
-316 313 219 0
-316 -313 -219 0
317 222 -220 0
317 -222 220 0
-317 222 220 0
-317 -222 -220 0
-318 313 0
-318 220 0
-318 219 -222 0
-318 -219 222 0
318 -313 219 222 -220 0
318 -313 -219 -222 -220 0
319 316 -217 0
319 -316 217 0
-319 316 217 0
-319 -316 -217 0
320 220 -218 0
320 -220 218 0
-320 220 218 0
-320 -220 -218 0
-321 316 0
-321 218 0
-321 217 -220 0
-321 -217 220 0
321 -316 217 220 -218 0
321 -316 -217 -220 -218 0
322 319 -215 0
322 -319 215 0
-322 319 215 0
-322 -319 -215 0
323 218 -216 0
323 -218 216 0
-323 218 216 0
-323 -218 -216 0
-324 319 0
-324 216 0
-324 215 -218 0
-324 -215 218 0
324 -319 215 218 -216 0
324 -319 -215 -218 -216 0
325 322 -213 0
325 -322 213 0
-325 322 213 0
-325 -322 -213 0
326 216 -214 0
326 -216 214 0
-326 216 214 0
-326 -216 -214 0
-327 322 0
-327 214 0
-327 213 -216 0
-327 -213 216 0
327 -322 213 216 -214 0
327 -322 -213 -216 -214 0
328 325 -211 0
328 -325 211 0
-328 325 211 0
-328 -325 -211 0
329 214 -212 0
329 -214 212 0
-329 214 212 0
-329 -214 -212 0
-330 325 0
-330 212 0
-330 211 -214 0
-330 -211 214 0
330 -325 211 214 -212 0
330 -325 -211 -214 -212 0
331 328 -209 0
331 -328 209 0
-331 328 209 0
-331 -328 -209 0
332 212 -210 0
332 -212 210 0
-332 212 210 0
-332 -212 -210 0
-333 328 0
-333 210 0
-333 209 -212 0
-333 -209 212 0
333 -328 209 212 -210 0
333 -328 -209 -212 -210 0
334 331 -207 0
334 -331 207 0
-334 331 207 0
-334 -331 -207 0
335 210 -208 0
335 -210 208 0
-335 210 208 0
-335 -210 -208 0
-336 331 0
-336 208 0
-336 207 -210 0
-336 -207 210 0
336 -331 207 210 -208 0
336 -331 -207 -210 -208 0
337 334 -205 0
337 -334 205 0
-337 334 205 0
-337 -334 -205 0
338 208 -206 0
338 -208 206 0
-338 208 206 0
-338 -208 -206 0
-339 334 0
-339 206 0
-339 205 -208 0
-339 -205 208 0
339 -334 205 208 -206 0
339 -334 -205 -208 -206 0
340 337 -203 0
340 -337 203 0
-340 337 203 0
-340 -337 -203 0
341 206 -204 0
341 -206 204 0
-341 206 204 0
-341 -206 -204 0
-342 337 0
-342 204 0
-342 203 -206 0
-342 -203 206 0
342 -337 203 206 -204 0
342 -337 -203 -206 -204 0
343 340 -201 0
343 -340 201 0
-343 340 201 0
-343 -340 -201 0
344 204 -202 0
344 -204 202 0
-344 204 202 0
-344 -204 -202 0
-345 340 0
-345 202 0
-345 201 -204 0
-345 -201 204 0
345 -340 201 204 -202 0
345 -340 -201 -204 -202 0
346 343 -199 0
346 -343 199 0
-346 343 199 0
-346 -343 -199 0
347 202 -200 0
347 -202 200 0
-347 202 200 0
-347 -202 -200 0
-348 343 0
-348 200 0
-348 199 -202 0
-348 -199 202 0
348 -343 199 202 -200 0
348 -343 -199 -202 -200 0
349 346 -197 0
349 -346 197 0
-349 346 197 0
-349 -346 -197 0
350 200 -198 0
350 -200 198 0
-350 200 198 0
-350 -200 -198 0
-351 346 0
-351 198 0
-351 197 -200 0
-351 -197 200 0
351 -346 197 200 -198 0
351 -346 -197 -200 -198 0
352 349 -195 0
352 -349 195 0
-352 349 195 0
-352 -349 -195 0
353 198 -196 0
353 -198 196 0
-353 198 196 0
-353 -198 -196 0
-354 349 0
-354 196 0
-354 195 -198 0
-354 -195 198 0
354 -349 195 198 -196 0
354 -349 -195 -198 -196 0
355 352 -193 0
355 -352 193 0
-355 352 193 0
-355 -352 -193 0
356 196 -194 0
356 -196 194 0
-356 196 194 0
-356 -196 -194 0
-357 352 0
-357 194 0
-357 193 -196 0
-357 -193 196 0
357 -352 193 196 -194 0
357 -352 -193 -196 -194 0
358 355 -191 0
358 -355 191 0
-358 355 191 0
-358 -355 -191 0
359 194 -192 0
359 -194 192 0
-359 194 192 0
-359 -194 -192 0
-360 355 0
-360 192 0
-360 191 -194 0
-360 -191 194 0
360 -355 191 194 -192 0
360 -355 -191 -194 -192 0
361 358 -189 0
361 -358 189 0
-361 358 189 0
-361 -358 -189 0
362 192 -190 0
362 -192 190 0
-362 192 190 0
-362 -192 -190 0
-363 358 0
-363 190 0
-363 189 -192 0
-363 -189 192 0
363 -358 189 192 -190 0
363 -358 -189 -192 -190 0
364 361 -187 0
364 -361 187 0
-364 361 187 0
-364 -361 -187 0
365 190 -188 0
365 -190 188 0
-365 190 188 0
-365 -190 -188 0
-366 361 0
-366 188 0
-366 187 -190 0
-366 -187 190 0
366 -361 187 190 -188 0
366 -361 -187 -190 -188 0
367 364 -185 0
367 -364 185 0
-367 364 185 0
-367 -364 -185 0
368 188 -186 0
368 -188 186 0
-368 188 186 0
-368 -188 -186 0
-369 364 0
-369 186 0
-369 185 -188 0
-369 -185 188 0
369 -364 185 188 -186 0
369 -364 -185 -188 -186 0
370 367 -183 0
370 -367 183 0
-370 367 183 0
-370 -367 -183 0
371 186 -184 0
371 -186 184 0
-371 186 184 0
-371 -186 -184 0
-372 367 0
-372 184 0
-372 183 -186 0
-372 -183 186 0
372 -367 183 186 -184 0
372 -367 -183 -186 -184 0
373 370 -181 0
373 -370 181 0
-373 370 181 0
-373 -370 -181 0
374 184 -182 0
374 -184 182 0
-374 184 182 0
-374 -184 -182 0
-375 370 0
-375 182 0
-375 181 -184 0
-375 -181 184 0
375 -370 181 184 -182 0
375 -370 -181 -184 -182 0
376 373 -179 0
376 -373 179 0
-376 373 179 0
-376 -373 -179 0
377 182 -180 0
377 -182 180 0
-377 182 180 0
-377 -182 -180 0
-378 373 0
-378 180 0
-378 179 -182 0
-378 -179 182 0
378 -373 179 182 -180 0
378 -373 -179 -182 -180 0
379 376 -177 0
379 -376 177 0
-379 376 177 0
-379 -376 -177 0
380 180 -178 0
380 -180 178 0
-380 180 178 0
-380 -180 -178 0
-381 376 0
-381 178 0
-381 177 -180 0
-381 -177 180 0
381 -376 177 180 -178 0
381 -376 -177 -180 -178 0
382 379 -175 0
382 -379 175 0
-382 379 175 0
-382 -379 -175 0
383 178 -176 0
383 -178 176 0
-383 178 176 0
-383 -178 -176 0
-384 379 0
-384 176 0
-384 175 -178 0
-384 -175 178 0
384 -379 175 178 -176 0
384 -379 -175 -178 -176 0
385 382 -173 0
385 -382 173 0
-385 382 173 0
-385 -382 -173 0
386 176 -174 0
386 -176 174 0
-386 176 174 0
-386 -176 -174 0
-387 382 0
-387 174 0
-387 173 -176 0
-387 -173 176 0
387 -382 173 176 -174 0
387 -382 -173 -176 -174 0
388 385 -171 0
388 -385 171 0
-388 385 171 0
-388 -385 -171 0
389 174 -172 0
389 -174 172 0
-389 174 172 0
-389 -174 -172 0
-390 385 0
-390 172 0
-390 171 -174 0
-390 -171 174 0
390 -385 171 174 -172 0
390 -385 -171 -174 -172 0
391 388 -169 0
391 -388 169 0
-391 388 169 0
-391 -388 -169 0
392 172 -170 0
392 -172 170 0
-392 172 170 0
-392 -172 -170 0
-393 388 0
-393 170 0
-393 169 -172 0
-393 -169 172 0
393 -388 169 172 -170 0
393 -388 -169 -172 -170 0
394 391 -167 0
394 -391 167 0
-394 391 167 0
-394 -391 -167 0
395 170 -168 0
395 -170 168 0
-395 170 168 0
-395 -170 -168 0
-396 391 0
-396 168 0
-396 167 -170 0
-396 -167 170 0
396 -391 167 170 -168 0
396 -391 -167 -170 -168 0
397 394 -165 0
397 -394 165 0
-397 394 165 0
-397 -394 -165 0
398 168 -166 0
398 -168 166 0
-398 168 166 0
-398 -168 -166 0
-399 394 0
-399 166 0
-399 165 -168 0
-399 -165 168 0
399 -394 165 168 -166 0
399 -394 -165 -168 -166 0
400 397 -163 0
400 -397 163 0
-400 397 163 0
-400 -397 -163 0
401 166 -164 0
401 -166 164 0
-401 166 164 0
-401 -166 -164 0
-402 397 0
-402 164 0
-402 163 -166 0
-402 -163 166 0
402 -397 163 166 -164 0
402 -397 -163 -166 -164 0
403 400 -161 0
403 -400 161 0
-403 400 161 0
-403 -400 -161 0
404 164 -162 0
404 -164 162 0
-404 164 162 0
-404 -164 -162 0
-405 400 0
-405 162 0
-405 161 -164 0
-405 -161 164 0
405 -400 161 164 -162 0
405 -400 -161 -164 -162 0
406 403 -159 0
406 -403 159 0
-406 403 159 0
-406 -403 -159 0
407 162 -160 0
407 -162 160 0
-407 162 160 0
-407 -162 -160 0
-408 403 0
-408 160 0
-408 159 -162 0
-408 -159 162 0
408 -403 159 162 -160 0
408 -403 -159 -162 -160 0
409 406 -157 0
409 -406 157 0
-409 406 157 0
-409 -406 -157 0
410 160 -158 0
410 -160 158 0
-410 160 158 0
-410 -160 -158 0
-411 406 0
-411 158 0
-411 157 -160 0
-411 -157 160 0
411 -406 157 160 -158 0
411 -406 -157 -160 -158 0
412 409 -155 0
412 -409 155 0
-412 409 155 0
-412 -409 -155 0
413 158 -156 0
413 -158 156 0
-413 158 156 0
-413 -158 -156 0
-414 409 0
-414 156 0
-414 155 -158 0
-414 -155 158 0
414 -409 155 158 -156 0
414 -409 -155 -158 -156 0
415 412 -153 0
415 -412 153 0
-415 412 153 0
-415 -412 -153 0
416 156 -154 0
416 -156 154 0
-416 156 154 0
-416 -156 -154 0
-417 412 0
-417 154 0
-417 153 -156 0
-417 -153 156 0
417 -412 153 156 -154 0
417 -412 -153 -156 -154 0
418 415 -151 0
418 -415 151 0
-418 415 151 0
-418 -415 -151 0
419 154 -152 0
419 -154 152 0
-419 154 152 0
-419 -154 -152 0
-420 415 0
-420 152 0
-420 151 -154 0
-420 -151 154 0
420 -415 151 154 -152 0
420 -415 -151 -154 -152 0
421 418 -149 0
421 -418 149 0
-421 418 149 0
-421 -418 -149 0
422 152 -150 0
422 -152 150 0
-422 152 150 0
-422 -152 -150 0
-423 418 0
-423 150 0
-423 149 -152 0
-423 -149 152 0
423 -418 149 152 -150 0
423 -418 -149 -152 -150 0
424 421 -147 0
424 -421 147 0
-424 421 147 0
-424 -421 -147 0
425 150 -148 0
425 -150 148 0
-425 150 148 0
-425 -150 -148 0
-426 421 0
-426 148 0
-426 147 -150 0
-426 -147 150 0
426 -421 147 150 -148 0
426 -421 -147 -150 -148 0
427 424 -145 0
427 -424 145 0
-427 424 145 0
-427 -424 -145 0
428 148 -146 0
428 -148 146 0
-428 148 146 0
-428 -148 -146 0
-429 424 0
-429 146 0
-429 145 -148 0
-429 -145 148 0
429 -424 145 148 -146 0
429 -424 -145 -148 -146 0
430 427 -143 0
430 -427 143 0
-430 427 143 0
-430 -427 -143 0
431 146 -144 0
431 -146 144 0
-431 146 144 0
-431 -146 -144 0
-432 427 0
-432 144 0
-432 143 -146 0
-432 -143 146 0
432 -427 143 146 -144 0
432 -427 -143 -146 -144 0
433 430 -141 0
433 -430 141 0
-433 430 141 0
-433 -430 -141 0
434 144 -142 0
434 -144 142 0
-434 144 142 0
-434 -144 -142 0
-435 430 0
-435 142 0
-435 141 -144 0
-435 -141 144 0
435 -430 141 144 -142 0
435 -430 -141 -144 -142 0
436 433 -139 0
436 -433 139 0
-436 433 139 0
-436 -433 -139 0
437 142 -140 0
437 -142 140 0
-437 142 140 0
-437 -142 -140 0
-438 433 0
-438 140 0
-438 139 -142 0
-438 -139 142 0
438 -433 139 142 -140 0
438 -433 -139 -142 -140 0
439 436 -137 0
439 -436 137 0
-439 436 137 0
-439 -436 -137 0
440 140 -138 0
440 -140 138 0
-440 140 138 0
-440 -140 -138 0
-441 436 0
-441 138 0
-441 137 -140 0
-441 -137 140 0
441 -436 137 140 -138 0
441 -436 -137 -140 -138 0
442 439 -135 0
442 -439 135 0
-442 439 135 0
-442 -439 -135 0
443 138 -136 0
443 -138 136 0
-443 138 136 0
-443 -138 -136 0
-444 439 0
-444 136 0
-444 135 -138 0
-444 -135 138 0
444 -439 135 138 -136 0
444 -439 -135 -138 -136 0
445 442 -133 0
445 -442 133 0
-445 442 133 0
-445 -442 -133 0
446 136 -134 0
446 -136 134 0
-446 136 134 0
-446 -136 -134 0
-447 442 0
-447 134 0
-447 133 -136 0
-447 -133 136 0
447 -442 133 136 -134 0
447 -442 -133 -136 -134 0
448 445 -131 0
448 -445 131 0
-448 445 131 0
-448 -445 -131 0
449 134 -132 0
449 -134 132 0
-449 134 132 0
-449 -134 -132 0
-450 445 0
-450 132 0
-450 131 -134 0
-450 -131 134 0
450 -445 131 134 -132 0
450 -445 -131 -134 -132 0
451 448 -129 0
451 -448 129 0
-451 448 129 0
-451 -448 -129 0
452 132 -130 0
452 -132 130 0
-452 132 130 0
-452 -132 -130 0
-453 448 0
-453 130 0
-453 129 -132 0
-453 -129 132 0
453 -448 129 132 -130 0
453 -448 -129 -132 -130 0
454 451 -127 0
454 -451 127 0
-454 451 127 0
-454 -451 -127 0
455 130 -128 0
455 -130 128 0
-455 130 128 0
-455 -130 -128 0
-456 451 0
-456 128 0
-456 127 -130 0
-456 -127 130 0
456 -451 127 130 -128 0
456 -451 -127 -130 -128 0
457 454 -125 0
457 -454 125 0
-457 454 125 0
-457 -454 -125 0
458 128 -126 0
458 -128 126 0
-458 128 126 0
-458 -128 -126 0
-459 454 0
-459 126 0
-459 125 -128 0
-459 -125 128 0
459 -454 125 128 -126 0
459 -454 -125 -128 -126 0
460 457 -123 0
460 -457 123 0
-460 457 123 0
-460 -457 -123 0
461 126 -124 0
461 -126 124 0
-461 126 124 0
-461 -126 -124 0
-462 457 0
-462 124 0
-462 123 -126 0
-462 -123 126 0
462 -457 123 126 -124 0
462 -457 -123 -126 -124 0
463 460 -121 0
463 -460 121 0
-463 460 121 0
-463 -460 -121 0
464 124 -122 0
464 -124 122 0
-464 124 122 0
-464 -124 -122 0
-465 460 0
-465 122 0
-465 121 -124 0
-465 -121 124 0
465 -460 121 124 -122 0
465 -460 -121 -124 -122 0
466 463 -119 0
466 -463 119 0
-466 463 119 0
-466 -463 -119 0
467 122 -120 0
467 -122 120 0
-467 122 120 0
-467 -122 -120 0
-468 463 0
-468 120 0
-468 119 -122 0
-468 -119 122 0
468 -463 119 122 -120 0
468 -463 -119 -122 -120 0
469 466 -117 0
469 -466 117 0
-469 466 117 0
-469 -466 -117 0
470 120 -118 0
470 -120 118 0
-470 120 118 0
-470 -120 -118 0
-471 466 0
-471 118 0
-471 117 -120 0
-471 -117 120 0
471 -466 117 120 -118 0
471 -466 -117 -120 -118 0
472 469 -115 0
472 -469 115 0
-472 469 115 0
-472 -469 -115 0
473 118 -116 0
473 -118 116 0
-473 118 116 0
-473 -118 -116 0
-474 469 0
-474 116 0
-474 115 -118 0
-474 -115 118 0
474 -469 115 118 -116 0
474 -469 -115 -118 -116 0
475 472 -113 0
475 -472 113 0
-475 472 113 0
-475 -472 -113 0
476 116 -114 0
476 -116 114 0
-476 116 114 0
-476 -116 -114 0
-477 472 0
-477 114 0
-477 113 -116 0
-477 -113 116 0
477 -472 113 116 -114 0
477 -472 -113 -116 -114 0
478 475 -111 0
478 -475 111 0
-478 475 111 0
-478 -475 -111 0
479 114 -112 0
479 -114 112 0
-479 114 112 0
-479 -114 -112 0
-480 475 0
-480 112 0
-480 111 -114 0
-480 -111 114 0
480 -475 111 114 -112 0
480 -475 -111 -114 -112 0
481 478 -109 0
481 -478 109 0
-481 478 109 0
-481 -478 -109 0
482 112 -110 0
482 -112 110 0
-482 112 110 0
-482 -112 -110 0
-483 478 0
-483 110 0
-483 109 -112 0
-483 -109 112 0
483 -478 109 112 -110 0
483 -478 -109 -112 -110 0
484 481 -107 0
484 -481 107 0
-484 481 107 0
-484 -481 -107 0
485 110 -108 0
485 -110 108 0
-485 110 108 0
-485 -110 -108 0
-486 481 0
-486 108 0
-486 107 -110 0
-486 -107 110 0
486 -481 107 110 -108 0
486 -481 -107 -110 -108 0
487 484 -105 0
487 -484 105 0
-487 484 105 0
-487 -484 -105 0
488 108 -106 0
488 -108 106 0
-488 108 106 0
-488 -108 -106 0
-489 484 0
-489 106 0
-489 105 -108 0
-489 -105 108 0
489 -484 105 108 -106 0
489 -484 -105 -108 -106 0
490 487 -103 0
490 -487 103 0
-490 487 103 0
-490 -487 -103 0
491 106 -104 0
491 -106 104 0
-491 106 104 0
-491 -106 -104 0
-492 487 0
-492 104 0
-492 103 -106 0
-492 -103 106 0
492 -487 103 106 -104 0
492 -487 -103 -106 -104 0
493 490 -101 0
493 -490 101 0
-493 490 101 0
-493 -490 -101 0
494 104 -102 0
494 -104 102 0
-494 104 102 0
-494 -104 -102 0
-495 490 0
-495 102 0
-495 101 -104 0
-495 -101 104 0
495 -490 101 104 -102 0
495 -490 -101 -104 -102 0
496 493 -99 0
496 -493 99 0
-496 493 99 0
-496 -493 -99 0
497 102 -100 0
497 -102 100 0
-497 102 100 0
-497 -102 -100 0
-498 493 0
-498 100 0
-498 99 -102 0
-498 -99 102 0
498 -493 99 102 -100 0
498 -493 -99 -102 -100 0
499 496 -97 0
499 -496 97 0
-499 496 97 0
-499 -496 -97 0
500 100 -98 0
500 -100 98 0
-500 100 98 0
-500 -100 -98 0
-501 496 0
-501 98 0
-501 97 -100 0
-501 -97 100 0
501 -496 97 100 -98 0
501 -496 -97 -100 -98 0
502 499 -95 0
502 -499 95 0
-502 499 95 0
-502 -499 -95 0
503 98 -96 0
503 -98 96 0
-503 98 96 0
-503 -98 -96 0
-504 499 0
-504 96 0
-504 95 -98 0
-504 -95 98 0
504 -499 95 98 -96 0
504 -499 -95 -98 -96 0
505 502 -93 0
505 -502 93 0
-505 502 93 0
-505 -502 -93 0
506 96 -94 0
506 -96 94 0
-506 96 94 0
-506 -96 -94 0
-507 502 0
-507 94 0
-507 93 -96 0
-507 -93 96 0
507 -502 93 96 -94 0
507 -502 -93 -96 -94 0
508 505 -91 0
508 -505 91 0
-508 505 91 0
-508 -505 -91 0
509 94 -92 0
509 -94 92 0
-509 94 92 0
-509 -94 -92 0
-510 505 0
-510 92 0
-510 91 -94 0
-510 -91 94 0
510 -505 91 94 -92 0
510 -505 -91 -94 -92 0
511 508 -89 0
511 -508 89 0
-511 508 89 0
-511 -508 -89 0
512 92 -90 0
512 -92 90 0
-512 92 90 0
-512 -92 -90 0
-513 508 0
-513 90 0
-513 89 -92 0
-513 -89 92 0
513 -508 89 92 -90 0
513 -508 -89 -92 -90 0
514 511 -87 0
514 -511 87 0
-514 511 87 0
-514 -511 -87 0
515 90 -88 0
515 -90 88 0
-515 90 88 0
-515 -90 -88 0
-516 511 0
-516 88 0
-516 87 -90 0
-516 -87 90 0
516 -511 87 90 -88 0
516 -511 -87 -90 -88 0
517 514 -85 0
517 -514 85 0
-517 514 85 0
-517 -514 -85 0
518 88 -86 0
518 -88 86 0
-518 88 86 0
-518 -88 -86 0
-519 514 0
-519 86 0
-519 85 -88 0
-519 -85 88 0
519 -514 85 88 -86 0
519 -514 -85 -88 -86 0
520 517 -83 0
520 -517 83 0
-520 517 83 0
-520 -517 -83 0
521 86 -84 0
521 -86 84 0
-521 86 84 0
-521 -86 -84 0
-522 517 0
-522 84 0
-522 83 -86 0
-522 -83 86 0
522 -517 83 86 -84 0
522 -517 -83 -86 -84 0
523 520 -81 0
523 -520 81 0
-523 520 81 0
-523 -520 -81 0
524 84 -82 0
524 -84 82 0
-524 84 82 0
-524 -84 -82 0
-525 520 0
-525 82 0
-525 81 -84 0
-525 -81 84 0
525 -520 81 84 -82 0
525 -520 -81 -84 -82 0
526 523 -79 0
526 -523 79 0
-526 523 79 0
-526 -523 -79 0
527 82 -80 0
527 -82 80 0
-527 82 80 0
-527 -82 -80 0
-528 523 0
-528 80 0
-528 79 -82 0
-528 -79 82 0
528 -523 79 82 -80 0
528 -523 -79 -82 -80 0
529 526 -77 0
529 -526 77 0
-529 526 77 0
-529 -526 -77 0
530 80 -78 0
530 -80 78 0
-530 80 78 0
-530 -80 -78 0
-531 526 0
-531 78 0
-531 77 -80 0
-531 -77 80 0
531 -526 77 80 -78 0
531 -526 -77 -80 -78 0
532 529 -75 0
532 -529 75 0
-532 529 75 0
-532 -529 -75 0
533 78 -76 0
533 -78 76 0
-533 78 76 0
-533 -78 -76 0
-534 529 0
-534 76 0
-534 75 -78 0
-534 -75 78 0
534 -529 75 78 -76 0
534 -529 -75 -78 -76 0
535 532 -73 0
535 -532 73 0
-535 532 73 0
-535 -532 -73 0
536 76 -74 0
536 -76 74 0
-536 76 74 0
-536 -76 -74 0
-537 532 0
-537 74 0
-537 73 -76 0
-537 -73 76 0
537 -532 73 76 -74 0
537 -532 -73 -76 -74 0
538 535 -71 0
538 -535 71 0
-538 535 71 0
-538 -535 -71 0
539 74 -72 0
539 -74 72 0
-539 74 72 0
-539 -74 -72 0
-540 535 0
-540 72 0
-540 71 -74 0
-540 -71 74 0
540 -535 71 74 -72 0
540 -535 -71 -74 -72 0
541 538 -69 0
541 -538 69 0
-541 538 69 0
-541 -538 -69 0
542 72 -70 0
542 -72 70 0
-542 72 70 0
-542 -72 -70 0
-543 538 0
-543 70 0
-543 69 -72 0
-543 -69 72 0
543 -538 69 72 -70 0
543 -538 -69 -72 -70 0
544 541 -67 0
544 -541 67 0
-544 541 67 0
-544 -541 -67 0
545 70 -68 0
545 -70 68 0
-545 70 68 0
-545 -70 -68 0
-546 541 0
-546 68 0
-546 67 -70 0
-546 -67 70 0
546 -541 67 70 -68 0
546 -541 -67 -70 -68 0
547 544 -65 0
547 -544 65 0
-547 544 65 0
-547 -544 -65 0
548 68 -66 0
548 -68 66 0
-548 68 66 0
-548 -68 -66 0
-549 544 0
-549 66 0
-549 65 -68 0
-549 -65 68 0
549 -544 65 68 -66 0
549 -544 -65 -68 -66 0
550 547 -63 0
550 -547 63 0
-550 547 63 0
-550 -547 -63 0
551 66 -64 0
551 -66 64 0
-551 66 64 0
-551 -66 -64 0
-552 547 0
-552 64 0
-552 63 -66 0
-552 -63 66 0
552 -547 63 66 -64 0
552 -547 -63 -66 -64 0
553 550 -61 0
553 -550 61 0
-553 550 61 0
-553 -550 -61 0
554 64 -62 0
554 -64 62 0
-554 64 62 0
-554 -64 -62 0
-555 550 0
-555 62 0
-555 61 -64 0
-555 -61 64 0
555 -550 61 64 -62 0
555 -550 -61 -64 -62 0
556 553 -59 0
556 -553 59 0
-556 553 59 0
-556 -553 -59 0
557 62 -60 0
557 -62 60 0
-557 62 60 0
-557 -62 -60 0
-558 553 0
-558 60 0
-558 59 -62 0
-558 -59 62 0
558 -553 59 62 -60 0
558 -553 -59 -62 -60 0
559 556 -57 0
559 -556 57 0
-559 556 57 0
-559 -556 -57 0
560 60 -58 0
560 -60 58 0
-560 60 58 0
-560 -60 -58 0
-561 556 0
-561 58 0
-561 57 -60 0
-561 -57 60 0
561 -556 57 60 -58 0
561 -556 -57 -60 -58 0
562 559 -55 0
562 -559 55 0
-562 559 55 0
-562 -559 -55 0
563 58 -56 0
563 -58 56 0
-563 58 56 0
-563 -58 -56 0
-564 559 0
-564 56 0
-564 55 -58 0
-564 -55 58 0
564 -559 55 58 -56 0
564 -559 -55 -58 -56 0
565 562 -53 0
565 -562 53 0
-565 562 53 0
-565 -562 -53 0
566 56 -54 0
566 -56 54 0
-566 56 54 0
-566 -56 -54 0
-567 562 0
-567 54 0
-567 53 -56 0
-567 -53 56 0
567 -562 53 56 -54 0
567 -562 -53 -56 -54 0
568 565 -51 0
568 -565 51 0
-568 565 51 0
-568 -565 -51 0
569 54 -52 0
569 -54 52 0
-569 54 52 0
-569 -54 -52 0
-570 565 0
-570 52 0
-570 51 -54 0
-570 -51 54 0
570 -565 51 54 -52 0
570 -565 -51 -54 -52 0
571 568 -49 0
571 -568 49 0
-571 568 49 0
-571 -568 -49 0
572 52 -50 0
572 -52 50 0
-572 52 50 0
-572 -52 -50 0
-573 568 0
-573 50 0
-573 49 -52 0
-573 -49 52 0
573 -568 49 52 -50 0
573 -568 -49 -52 -50 0
574 571 -47 0
574 -571 47 0
-574 571 47 0
-574 -571 -47 0
575 50 -48 0
575 -50 48 0
-575 50 48 0
-575 -50 -48 0
-576 571 0
-576 48 0
-576 47 -50 0
-576 -47 50 0
576 -571 47 50 -48 0
576 -571 -47 -50 -48 0
577 574 -45 0
577 -574 45 0
-577 574 45 0
-577 -574 -45 0
578 48 -46 0
578 -48 46 0
-578 48 46 0
-578 -48 -46 0
-579 574 0
-579 46 0
-579 45 -48 0
-579 -45 48 0
579 -574 45 48 -46 0
579 -574 -45 -48 -46 0
580 577 -43 0
580 -577 43 0
-580 577 43 0
-580 -577 -43 0
581 46 -44 0
581 -46 44 0
-581 46 44 0
-581 -46 -44 0
-582 577 0
-582 44 0
-582 43 -46 0
-582 -43 46 0
582 -577 43 46 -44 0
582 -577 -43 -46 -44 0
583 580 -41 0
583 -580 41 0
-583 580 41 0
-583 -580 -41 0
584 44 -42 0
584 -44 42 0
-584 44 42 0
-584 -44 -42 0
-585 580 0
-585 42 0
-585 41 -44 0
-585 -41 44 0
585 -580 41 44 -42 0
585 -580 -41 -44 -42 0
586 583 -39 0
586 -583 39 0
-586 583 39 0
-586 -583 -39 0
587 42 -40 0
587 -42 40 0
-587 42 40 0
-587 -42 -40 0
-588 583 0
-588 40 0
-588 39 -42 0
-588 -39 42 0
588 -583 39 42 -40 0
588 -583 -39 -42 -40 0
589 586 -37 0
589 -586 37 0
-589 586 37 0
-589 -586 -37 0
590 40 -38 0
590 -40 38 0
-590 40 38 0
-590 -40 -38 0
-591 586 0
-591 38 0
-591 37 -40 0
-591 -37 40 0
591 -586 37 40 -38 0
591 -586 -37 -40 -38 0
592 589 -35 0
592 -589 35 0
-592 589 35 0
-592 -589 -35 0
593 38 -36 0
593 -38 36 0
-593 38 36 0
-593 -38 -36 0
-594 589 0
-594 36 0
-594 35 -38 0
-594 -35 38 0
594 -589 35 38 -36 0
594 -589 -35 -38 -36 0
595 592 -33 0
595 -592 33 0
-595 592 33 0
-595 -592 -33 0
596 36 -34 0
596 -36 34 0
-596 36 34 0
-596 -36 -34 0
-597 592 0
-597 34 0
-597 33 -36 0
-597 -33 36 0
597 -592 33 36 -34 0
597 -592 -33 -36 -34 0
598 595 -31 0
598 -595 31 0
-598 595 31 0
-598 -595 -31 0
599 34 -32 0
599 -34 32 0
-599 34 32 0
-599 -34 -32 0
-600 595 0
-600 32 0
-600 31 -34 0
-600 -31 34 0
600 -595 31 34 -32 0
600 -595 -31 -34 -32 0
601 598 -29 0
601 -598 29 0
-601 598 29 0
-601 -598 -29 0
602 32 -30 0
602 -32 30 0
-602 32 30 0
-602 -32 -30 0
-603 598 0
-603 30 0
-603 29 -32 0
-603 -29 32 0
603 -598 29 32 -30 0
603 -598 -29 -32 -30 0
604 601 -27 0
604 -601 27 0
-604 601 27 0
-604 -601 -27 0
605 30 -28 0
605 -30 28 0
-605 30 28 0
-605 -30 -28 0
-606 601 0
-606 28 0
-606 27 -30 0
-606 -27 30 0
606 -601 27 30 -28 0
606 -601 -27 -30 -28 0
607 604 -25 0
607 -604 25 0
-607 604 25 0
-607 -604 -25 0
608 28 -26 0
608 -28 26 0
-608 28 26 0
-608 -28 -26 0
-609 604 0
-609 26 0
-609 25 -28 0
-609 -25 28 0
609 -604 25 28 -26 0
609 -604 -25 -28 -26 0
610 607 -23 0
610 -607 23 0
-610 607 23 0
-610 -607 -23 0
611 26 -24 0
611 -26 24 0
-611 26 24 0
-611 -26 -24 0
-612 607 0
-612 24 0
-612 23 -26 0
-612 -23 26 0
612 -607 23 26 -24 0
612 -607 -23 -26 -24 0
613 610 -21 0
613 -610 21 0
-613 610 21 0
-613 -610 -21 0
614 24 -22 0
614 -24 22 0
-614 24 22 0
-614 -24 -22 0
-615 610 0
-615 22 0
-615 21 -24 0
-615 -21 24 0
615 -610 21 24 -22 0
615 -610 -21 -24 -22 0
616 613 -19 0
616 -613 19 0
-616 613 19 0
-616 -613 -19 0
617 22 -20 0
617 -22 20 0
-617 22 20 0
-617 -22 -20 0
-618 613 0
-618 20 0
-618 19 -22 0
-618 -19 22 0
618 -613 19 22 -20 0
618 -613 -19 -22 -20 0
619 616 -17 0
619 -616 17 0
-619 616 17 0
-619 -616 -17 0
620 20 -18 0
620 -20 18 0
-620 20 18 0
-620 -20 -18 0
-621 616 0
-621 18 0
-621 17 -20 0
-621 -17 20 0
621 -616 17 20 -18 0
621 -616 -17 -20 -18 0
622 619 -15 0
622 -619 15 0
-622 619 15 0
-622 -619 -15 0
623 18 -16 0
623 -18 16 0
-623 18 16 0
-623 -18 -16 0
-624 619 0
-624 16 0
-624 15 -18 0
-624 -15 18 0
624 -619 15 18 -16 0
624 -619 -15 -18 -16 0
625 622 -13 0
625 -622 13 0
-625 622 13 0
-625 -622 -13 0
626 16 -14 0
626 -16 14 0
-626 16 14 0
-626 -16 -14 0
-627 622 0
-627 14 0
-627 13 -16 0
-627 -13 16 0
627 -622 13 16 -14 0
627 -622 -13 -16 -14 0
628 625 -11 0
628 -625 11 0
-628 625 11 0
-628 -625 -11 0
629 14 -12 0
629 -14 12 0
-629 14 12 0
-629 -14 -12 0
-630 625 0
-630 12 0
-630 11 -14 0
-630 -11 14 0
630 -625 11 14 -12 0
630 -625 -11 -14 -12 0
631 628 -9 0
631 -628 9 0
-631 628 9 0
-631 -628 -9 0
632 12 -10 0
632 -12 10 0
-632 12 10 0
-632 -12 -10 0
-633 628 0
-633 10 0
-633 9 -12 0
-633 -9 12 0
633 -628 9 12 -10 0
633 -628 -9 -12 -10 0
634 631 -7 0
634 -631 7 0
-634 631 7 0
-634 -631 -7 0
635 10 -8 0
635 -10 8 0
-635 10 8 0
-635 -10 -8 0
-636 631 0
-636 8 0
-636 7 -10 0
-636 -7 10 0
636 -631 7 10 -8 0
636 -631 -7 -10 -8 0
637 634 -5 0
637 -634 5 0
-637 634 5 0
-637 -634 -5 0
638 8 -6 0
638 -8 6 0
-638 8 6 0
-638 -8 -6 0
-639 634 0
-639 6 0
-639 5 -8 0
-639 -5 8 0
639 -634 5 8 -6 0
639 -634 -5 -8 -6 0
640 637 -3 0
640 -637 3 0
-640 637 3 0
-640 -637 -3 0
641 6 -4 0
641 -6 4 0
-641 6 4 0
-641 -6 -4 0
-642 637 0
-642 4 0
-642 3 -6 0
-642 -3 6 0
642 -637 3 6 -4 0
642 -637 -3 -6 -4 0
643 640 -1 0
643 -640 1 0
-643 640 1 0
-643 -640 -1 0
644 4 -2 0
644 -4 2 0
-644 4 2 0
-644 -4 -2 0
-645 640 0
-645 2 0
-645 1 -4 0
-645 -1 4 0
645 -640 1 4 -2 0
645 -640 -1 -4 -2 0
-643 0
-640 0
-644 0
-637 0
-641 0
-634 0
-638 0
-631 0
-635 0
-628 0
-632 0
-625 0
-629 0
-622 0
-626 0
-619 0
-623 0
-616 0
-620 0
-613 0
-617 0
-610 0
-614 0
-607 0
-611 0
-604 0
-608 0
-601 0
-605 0
-598 0
-602 0
-595 0
-599 0
-592 0
-596 0
-589 0
-593 0
-586 0
-590 0
-583 0
-587 0
-580 0
-584 0
-577 0
-581 0
-574 0
-578 0
-571 0
-575 0
-568 0
-572 0
-565 0
-569 0
-562 0
-566 0
-559 0
-563 0
-556 0
-560 0
-553 0
-557 0
-550 0
-554 0
-547 0
-551 0
-544 0
-548 0
-541 0
-545 0
-538 0
-542 0
-535 0
-539 0
-532 0
-536 0
-529 0
-533 0
-526 0
-530 0
-523 0
-527 0
-520 0
-524 0
-517 0
-521 0
-514 0
-518 0
-511 0
-515 0
-508 0
-512 0
-505 0
-509 0
-502 0
-506 0
-499 0
-503 0
-496 0
-500 0
-493 0
-497 0
-490 0
-494 0
-487 0
-491 0
-484 0
-488 0
-481 0
-485 0
-478 0
-482 0
-475 0
-479 0
-472 0
-476 0
-469 0
-473 0
-466 0
-470 0
-463 0
-467 0
-460 0
-464 0
-457 0
-461 0
-454 0
-458 0
-451 0
-455 0
-448 0
-452 0
-445 0
-449 0
-442 0
-446 0
-439 0
-443 0
-436 0
-440 0
-433 0
-437 0
-430 0
-434 0
-427 0
-431 0
-424 0
-428 0
-421 0
-425 0
-418 0
-422 0
-415 0
-419 0
-412 0
-416 0
-409 0
-413 0
-406 0
-410 0
-403 0
-407 0
-400 0
-404 0
-397 0
-401 0
-394 0
-398 0
-391 0
-395 0
-388 0
-392 0
-385 0
-389 0
-382 0
-386 0
-379 0
-383 0
-376 0
-380 0
-373 0
-377 0
-370 0
-374 0
-367 0
-371 0
-364 0
-368 0
-361 0
-365 0
-358 0
-362 0
-355 0
-359 0
-352 0
-356 0
-349 0
-353 0
-346 0
-350 0
-343 0
-347 0
-340 0
-344 0
-337 0
-341 0
-334 0
-338 0
-331 0
-335 0
-328 0
-332 0
-325 0
-329 0
-322 0
-326 0
-319 0
-323 0
-316 0
-320 0
-313 0
-317 0
-310 0
-314 0
-307 0
-311 0
-304 0
-308 0
-301 0
-305 0
-298 0
-302 0
-295 0
-299 0
-292 0
-296 0
-289 0
-293 0
-286 0
-290 0
-283 0
-287 0
-280 0
-284 0
-277 0
-281 0
-274 0
-278 0
-271 0
-275 0
-268 0
-272 0
-265 0
-269 0
-259 0
-266 0
